\ENCODING=ISO-8859-1
\Problem name: 

Maximize
 obj: x1 + x2 + x3 + x4 + x5 + x6 + x7 + x8 + x9 + x10 + x11 + x12 + x13 + x14
      + x15 + x16 + x17 + x18 + x19 + x20 + x21 + x22 + x23 + x24 + x25 + x26
      + x27 + x28 + x29 + x30 + x31 + x32 + x33 + x34 + x35 + x36 + x37 + x38
      + x39 + x40 + x41 + x42 + x43 + x44 + x45 + x46 + x47 + x48 + x49 + x50
      + x51 + x52 + x53 + x54 + x55 + x56 + x57 + x58 + x59 + x60 + x61 + x62
      + x63 + x64 + x65 + x66 + x67 + x68 + x69 + x70 + x71 + x72 + x73 + x74
      + x75 + x76 + x77 + x78 + x79 + x80 + x81 + x82 + x83 + x84 + x85 + x86
      + x87 + x88 + x89 + x90 + x91 + x92 + x93 + x94 + x95 + x96 + x97 + x98
      + x99 + x100 + x101 + x102 + x103 + x104 + x105 + x106 + x107 + x108
      + x109 + x110 + x111 + x112 + x113 + x114 + x115 + x116 + x117 + x118
      + x119 + x120 + x121 + x122 + x123 + x124 + x125 + x126 + x127 + x128
      + x129 + x130 + x131 + x132 + x133 + x134 + x135 + x136 + x137 + x138
      + x139 + x140 + x141 + x142 + x143 + x144 + x145 + x146 + x147 + x148
      + x149 + x150 + x151 + x152 + x153 + x154 + x155 + x156 + x157 + x158
      + x159 + x160 + x161 + x162 + x163 + x164 + x165 + x166 + x167 + x168
      + x169 + x170 + x171 + x172 + x173 + x174 + x175 + x176 + x177 + x178
      + x179 + x180 + x181 + x182 + x183 + x184 + x185 + x186 + x187 + x188
      + x189 + x190 + x191 + x192 + x193 + x194 + x195 + x196 + x197 + x198
      + x199 + x200
Subject To
 clq1:    x8 + x26 + x64 <= 1
 clq2:    x49 + x79 + x100 <= 1
 clq3:    x87 + x124 + x162 <= 1
 clq4:    x85 + x152 + x175 <= 1
 clq5:    x82 + x100 + x133 <= 1
 clq6:    x29 + x68 + x154 <= 1
 clq7:    x35 + x78 + x81 <= 1
 clq8:    x60 + x79 + x132 <= 1
 clq9:    x30 + x146 + x148 <= 1
 clq10:   x58 + x121 + x149 <= 1
 clq11:   x17 + x139 + x159 <= 1
 clq12:   x13 + x148 + x191 <= 1
 clq13:   x81 + x119 <= 1
 clq14:   x67 + x76 + x166 <= 1
 clq15:   x52 + x84 + x193 <= 1
 clq16:   x30 + x46 + x51 <= 1
 clq17:   x116 + x132 <= 1
 clq18:   x10 + x37 + x132 <= 1
 clq19:   x98 + x186 <= 1
 clq20:   x15 + x26 + x172 <= 1
 clq21:   x18 + x37 + x56 + x134 <= 1
 clq22:   x17 + x35 + x139 <= 1
 clq23:   x10 + x185 <= 1
 clq24:   x22 + x77 + x190 <= 1
 clq25:   x25 + x65 + x174 <= 1
 clq26:   x86 + x175 <= 1
 clq27:   x27 + x138 <= 1
 clq28:   x73 + x151 + x183 <= 1
 clq29:   x87 + x100 + x133 <= 1
 clq30:   x11 + x67 + x147 + x182 <= 1
 clq31:   x17 + x26 + x64 + x135 <= 1
 clq32:   x50 + x169 + x186 <= 1
 clq33:   x84 + x135 + x193 <= 1
 clq34:   x2 + x51 + x130 <= 1
 clq35:   x55 + x162 + x166 <= 1
 clq36:   x21 + x160 + x189 <= 1
 clq37:   x125 + x186 <= 1
 clq38:   x63 + x103 + x161 <= 1
 clq39:   x7 + x98 <= 1
 clq40:   x10 + x194 <= 1
 clq41:   x75 + x82 + x120 <= 1
 clq42:   x50 + x80 + x127 <= 1
 clq43:   x62 + x97 <= 1
 clq44:   x24 + x116 + x190 <= 1
 clq45:   x39 + x82 + x125 <= 1
 clq46:   x19 + x45 + x161 <= 1
 clq47:   x153 + x164 + x192 <= 1
 clq48:   x11 + x62 + x190 <= 1
 clq49:   x40 + x145 + x163 <= 1
 clq50:   x133 + x172 + x177 <= 1
 clq51:   x129 + x155 + x159 <= 1
 clq52:   x22 + x42 + x136 <= 1
 clq53:   x39 + x90 + x184 <= 1
 clq54:   x73 + x113 <= 1
 clq55:   x153 + x176 + x177 <= 1
 clq56:   x2 + x47 <= 1
 clq57:   x71 + x101 + x136 <= 1
 clq58:   x173 + x180 <= 1
 clq59:   x20 + x70 + x186 <= 1
 clq60:   x8 + x13 + x14 <= 1
 clq61:   x22 + x84 + x138 <= 1
 clq62:   x1 + x7 + x87 <= 1
 clq63:   x46 + x148 + x191 <= 1
 clq64:   x60 + x135 + x156 <= 1
 clq65:   x35 + x181 + x187 <= 1
 clq66:   x19 + x93 <= 1
 clq67:   x37 + x89 + x121 <= 1
 clq68:   x60 + x107 + x173 <= 1
 clq69:   x53 + x181 + x187 <= 1
 clq70:   x42 + x49 + x188 <= 1
 clq71:   x101 + x118 + x136 <= 1
 clq72:   x120 + x136 + x177 <= 1
 clq73:   x14 + x76 + x181 <= 1
 clq74:   x119 + x135 <= 1
 clq75:   x72 + x121 + x200 <= 1
 clq76:   x66 + x130 + x197 <= 1
 clq77:   x32 + x92 + x143 <= 1
 clq78:   x80 + x129 + x146 <= 1
 clq79:   x86 + x129 + x146 <= 1
 clq80:   x111 + x128 <= 1
 clq81:   x49 + x182 + x194 <= 1
 clq82:   x21 + x136 + x186 <= 1
 clq83:   x31 + x34 + x79 <= 1
 clq84:   x87 + x96 <= 1
 clq85:   x34 + x108 <= 1
 clq86:   x55 + x98 + x162 <= 1
 clq87:   x55 + x134 + x187 <= 1
 clq88:   x82 + x90 + x139 <= 1
 clq89:   x12 + x112 + x189 <= 1
 clq90:   x56 + x106 + x164 <= 1
 clq91:   x6 + x99 + x195 <= 1
 clq92:   x46 + x116 + x151 <= 1
 clq93:   x35 + x84 + x120 <= 1
 clq94:   x31 + x71 + x77 <= 1
 clq95:   x82 + x171 + x199 <= 1
 clq96:   x99 + x146 + x195 <= 1
 clq97:   x71 + x151 + x177 <= 1
 clq98:   x3 + x179 + x199 <= 1
 clq99:   x32 + x85 + x92 <= 1
 clq100:  x53 + x168 <= 1
 clq101:  x27 + x67 + x112 <= 1
 clq102:  x90 + x116 + x129 <= 1
 clq103:  x8 + x97 <= 1
 clq104:  x82 + x128 <= 1
 clq105:  x38 + x106 + x117 <= 1
 clq106:  x88 + x157 + x198 <= 1
 clq107:  x77 + x133 + x145 <= 1
 clq108:  x74 + x155 + x193 <= 1
 clq109:  x158 + x164 + x180 <= 1
 clq110:  x83 + x136 + x198 <= 1
 clq111:  x5 + x167 <= 1
 clq112:  x37 + x97 <= 1
 clq113:  x3 + x103 + x137 <= 1
 clq114:  x9 + x86 <= 1
 clq115:  x43 + x195 <= 1
 clq116:  x36 + x73 + x183 <= 1
 clq117:  x49 + x70 + x196 <= 1
 clq118:  x48 + x150 <= 1
 clq119:  x33 + x105 <= 1
 clq120:  x150 + x157 <= 1
 clq121:  x26 + x39 + x163 <= 1
 clq122:  x75 + x114 + x176 <= 1
 clq123:  x163 + x167 <= 1
 clq124:  x1 + x7 + x67 <= 1
 clq125:  x18 + x115 + x179 <= 1
 clq126:  x34 + x44 + x81 <= 1
 clq127:  x62 + x153 <= 1
 clq128:  x17 + x68 + x154 <= 1
 clq129:  x38 + x40 <= 1
 clq130:  x2 + x7 <= 1
 clq131:  x62 + x74 + x126 <= 1
 clq132:  x31 + x77 + x200 <= 1
 clq133:  x25 + x65 + x111 <= 1
 clq134:  x47 + x183 <= 1
 clq135:  x17 + x107 + x188 <= 1
 clq136:  x84 + x194 <= 1
 clq137:  x42 + x60 + x79 <= 1
 clq138:  x98 + x171 + x185 <= 1
 clq139:  x28 + x177 + x200 <= 1
 clq140:  x117 + x158 + x172 <= 1
 clq141:  x25 + x43 + x101 <= 1
 clq142:  x36 + x87 + x187 <= 1
 clq143:  x141 + x188 <= 1
 clq144:  x126 + x179 + x199 <= 1
 clq145:  x52 + x61 + x198 <= 1
 clq146:  x50 + x156 <= 1
 clq147:  x4 + x18 + x52 <= 1
 clq148:  x133 + x165 + x195 <= 1
 clq149:  x2 + x54 + x86 <= 1
 clq150:  x113 + x197 <= 1
 clq151:  x160 + x185 <= 1
 clq152:  x36 + x164 + x169 <= 1
 clq153:  x7 + x56 <= 1
 clq154:  x14 + x141 <= 1
 clq155:  x25 + x28 + x85 <= 1
 clq156:  x89 + x119 + x169 <= 1
 clq157:  x1 + x87 + x115 <= 1
 clq158:  x104 + x157 <= 1
 clq159:  x55 + x70 + x159 <= 1
 clq160:  x16 + x44 + x144 <= 1
 clq161:  x28 + x127 + x200 <= 1
 clq162:  x137 + x153 + x167 <= 1
 clq163:  x45 + x102 + x144 <= 1
 clq164:  x30 + x154 + x177 <= 1
 clq165:  x18 + x56 + x126 <= 1
 clq166:  x15 + x138 + x172 <= 1
 clq167:  x15 + x69 <= 1
 clq168:  x57 + x182 + x190 <= 1
 clq169:  x64 + x92 + x96 <= 1
 clq170:  x36 + x127 + x140 <= 1
 clq171:  x46 + x58 + x156 <= 1
 clq172:  x109 + x156 <= 1
 clq173:  x5 + x60 + x173 <= 1
 clq174:  x102 + x159 + x199 <= 1
 clq175:  x11 + x25 + x65 <= 1
 clq176:  x31 + x115 + x179 <= 1
 clq177:  x60 + x108 + x123 <= 1
 clq178:  x9 + x19 + x45 <= 1
 clq179:  x24 + x94 <= 1
 clq180:  x89 + x107 + x176 <= 1
 clq181:  x63 + x103 + x157 <= 1
 clq182:  x81 + x177 + x195 <= 1
 clq183:  x17 + x23 + x42 <= 1
 clq184:  x13 + x131 + x132 <= 1
 clq185:  x76 + x102 <= 1
 clq186:  x26 + x172 + x194 <= 1
 clq187:  x20 + x38 + x88 <= 1
 clq188:  x13 + x167 <= 1
 clq189:  x3 + x90 + x158 <= 1
 clq190:  x4 + x13 + x162 <= 1
 clq191:  x13 + x155 + x162 <= 1
 clq192:  x4 + x51 + x111 + x198 <= 1
 clq193:  x140 + x147 + x149 <= 1
 clq194:  x78 + x92 + x185 + x200 <= 1
 clq195:  x78 + x93 + x190 <= 1
 clq196:  x14 + x33 + x181 <= 1
 clq197:  x33 + x78 + x93 + x167 <= 1
 clq198:  x39 + x47 <= 1
 clq199:  x98 + x146 <= 1
 clq200:  x8 + x45 + x182 <= 1
 clq201:  x62 + x131 + x145 <= 1
 clq202:  x5 + x66 + x140 <= 1
 clq203:  x35 + x126 + x165 <= 1
 clq204:  x10 + x111 <= 1
 clq205:  x43 + x98 <= 1
 clq206:  x59 + x170 + x174 <= 1
 clq207:  x23 + x37 + x132 <= 1
 clq208:  x83 + x108 <= 1
 clq209:  x37 + x70 + x73 + x152 <= 1
 clq210:  x96 + x125 <= 1
 clq211:  x43 + x119 + x169 <= 1
 clq212:  x66 + x122 <= 1
 clq213:  x53 + x113 <= 1
 clq214:  x11 + x110 + x150 <= 1
 clq215:  x32 + x41 + x147 <= 1
 clq216:  x75 + x133 + x145 <= 1
 clq217:  x6 + x156 <= 1
 clq218:  x14 + x33 + x198 <= 1
 clq219:  x120 + x127 + x184 <= 1
 clq220:  x73 + x85 + x152 <= 1
 clq221:  x126 + x157 + x186 <= 1
 clq222:  x100 + x127 + x200 <= 1
 clq223:  x159 + x174 + x195 <= 1
 clq224:  x14 + x118 + x180 <= 1
 clq225:  x97 + x105 <= 1
 clq226:  x40 + x99 + x126 <= 1
 clq227:  x147 + x149 + x169 <= 1
 clq228:  x27 + x95 <= 1
 clq229:  x21 + x49 + x170 <= 1
 clq230:  x142 + x183 <= 1
 clq231:  x8 + x59 <= 1
 clq232:  x121 + x139 + x167 <= 1
 clq233:  x125 + x176 + x193 <= 1
 clq234:  x37 + x134 + x195 <= 1
 clq235:  x37 + x56 + x164 <= 1
 clq236:  x88 + x157 + x189 <= 1
 clq237:  x73 + x111 <= 1
 clq238:  x116 + x121 + x200 <= 1
 clq239:  x60 + x71 + x160 <= 1
 clq240:  x26 + x147 + x196 <= 1
 clq241:  x125 + x160 + x176 <= 1
 clq242:  x154 + x164 + x180 <= 1
 clq243:  x15 + x143 + x197 <= 1
 clq244:  x8 + x75 + x182 <= 1
 clq245:  x110 + x145 + x163 <= 1
 clq246:  x36 + x169 + x190 <= 1
 clq247:  x4 + x17 + x54 + x64 <= 1
 clq248:  x57 + x113 + x156 <= 1
 clq249:  x36 + x112 + x135 <= 1
 clq250:  x74 + x126 + x165 <= 1
 clq251:  x14 + x180 + x186 <= 1
 clq252:  x48 + x65 + x112 <= 1
 clq253:  x93 + x101 + x170 <= 1
 clq254:  x27 + x137 <= 1
 clq255:  x72 + x106 + x164 <= 1
 clq256:  x45 + x102 + x108 <= 1
 clq257:  x12 + x69 + x129 <= 1
 clq258:  x69 + x84 + x114 <= 1
 clq259:  x12 + x126 <= 1
 clq260:  x6 + x119 + x138 + x150 <= 1
 clq261:  x22 + x118 + x136 + x182 <= 1
 clq262:  x30 + x72 + x166 <= 1
 clq263:  x17 + x42 + x102 <= 1
 clq264:  x17 + x139 + x167 <= 1
 clq265:  x147 + x171 + x173 <= 1
 clq266:  x43 + x131 + x144 <= 1
 clq267:  x20 + x36 + x135 <= 1
 clq268:  x118 + x144 + x191 <= 1
 clq269:  x43 + x49 + x122 <= 1
 clq270:  x26 + x76 + x107 + x174 <= 1
 clq271:  x34 + x80 + x183 <= 1
 clq272:  x75 + x84 + x98 + x114 <= 1
 clq273:  x17 + x109 + x171 <= 1
 clq274:  x135 + x145 <= 1
 clq275:  x38 + x42 + x49 <= 1
 clq276:  x28 + x165 + x194 <= 1
 clq277:  x25 + x99 + x146 <= 1
 clq278:  x48 + x64 + x194 <= 1
 clq279:  x55 + x88 + x157 <= 1
 clq280:  x19 + x35 + x61 <= 1
 clq281:  x65 + x153 + x162 <= 1
 clq282:  x18 + x72 + x127 <= 1
 clq283:  x16 + x29 + x130 <= 1
 clq284:  x50 + x66 + x70 <= 1
 clq285:  x1 + x143 <= 1
 clq286:  x49 + x122 + x194 <= 1
 clq287:  x79 + x83 + x184 + x190 <= 1
 clq288:  x46 + x60 + x104 <= 1
 clq289:  x42 + x49 + x170 <= 1
 clq290:  x43 + x78 + x149 <= 1
 clq291:  x1 + x70 + x118 <= 1
 clq292:  x49 + x54 + x172 + x194 <= 1
 clq293:  x110 + x134 <= 1
 clq294:  x1 + x70 + x129 <= 1
 clq295:  x34 + x65 + x106 <= 1
 clq296:  x20 + x128 + x175 <= 1
 clq297:  x96 + x97 <= 1
 clq298:  x43 + x116 + x169 <= 1
 clq299:  x22 + x173 <= 1
 clq300:  x17 + x64 + x67 <= 1
 clq301:  x32 + x51 <= 1
 clq302:  x157 + x200 <= 1
 clq303:  x3 + x22 + x178 <= 1
 clq304:  x5 + x55 + x157 <= 1
 clq305:  x62 + x74 + x142 <= 1
 clq306:  x14 + x180 + x197 <= 1
 clq307:  x9 + x78 + x187 <= 1
 clq308:  x129 + x156 <= 1
 clq309:  x4 + x52 + x165 <= 1
 clq310:  x33 + x80 + x96 <= 1
 clq311:  x26 + x116 + x153 <= 1
 clq312:  x121 + x155 + x161 <= 1
 clq313:  x106 + x149 + x183 <= 1
 clq314:  x110 + x171 <= 1
 clq315:  x19 + x92 + x161 <= 1
 clq316:  x59 + x142 <= 1
 clq317:  x37 + x55 + x124 <= 1
 clq318:  x84 + x118 + x151 <= 1
 clq319:  x71 + x103 + x161 <= 1
 clq320:  x31 + x71 + x179 <= 1
 clq321:  x62 + x66 + x145 <= 1
 clq322:  x48 + x112 + x118 <= 1
 clq323:  x5 + x41 + x46 <= 1
 clq324:  x75 + x84 + x120 <= 1
 clq325:  x106 + x148 + x183 <= 1
 clq326:  x34 + x52 + x116 <= 1
 clq327:  x16 + x153 + x196 <= 1
 clq328:  x108 + x155 <= 1
 clq329:  x94 + x153 + x185 <= 1
 clq330:  x10 + x199 <= 1
 clq331:  x27 + x68 + x154 <= 1
 clq332:  x44 + x120 <= 1
 clq333:  x4 + x117 + x139 <= 1
 clq334:  x118 + x187 <= 1
 clq335:  x19 + x32 + x45 + x147 <= 1
 clq336:  x81 + x92 + x179 <= 1
 clq337:  x9 + x123 + x189 <= 1
 clq338:  x76 + x133 + x166 <= 1
 clq339:  x42 + x102 + x199 <= 1
 clq340:  x124 + x140 <= 1
 clq341:  x38 + x68 + x69 <= 1
 clq342:  x149 + x180 + x192 <= 1
 clq343:  x75 + x79 <= 1
 clq344:  x33 + x175 + x198 <= 1
 clq345:  x7 + x140 <= 1
 clq346:  x43 + x140 + x149 <= 1
 clq347:  x78 + x92 + x133 <= 1
 clq348:  x4 + x120 + x136 <= 1
 clq349:  x28 + x79 + x194 <= 1
 clq350:  x107 + x188 + x190 <= 1
 clq351:  x35 + x80 <= 1
 clq352:  x63 + x86 <= 1
 clq353:  x8 + x47 + x64 <= 1
 clq354:  x20 + x80 + x134 <= 1
 clq355:  x90 + x115 + x184 <= 1
 clq356:  x36 + x160 + x176 <= 1
 clq357:  x43 + x184 <= 1
 clq358:  x92 + x113 <= 1
 clq359:  x36 + x87 + x190 <= 1
 clq360:  x67 + x85 + x152 <= 1
 clq361:  x29 + x66 + x108 <= 1
 clq362:  x14 + x30 + x181 <= 1
 clq363:  x113 + x167 <= 1
 clq364:  x115 + x136 <= 1
 clq365:  x16 + x72 <= 1
 clq366:  x37 + x55 + x61 <= 1
 clq367:  x105 + x107 + x199 <= 1
 clq368:  x12 + x63 + x69 <= 1
 clq369:  x57 + x83 + x113 <= 1
 clq370:  x162 + x181 <= 1
 clq371:  x35 + x78 + x200 <= 1
 clq372:  x75 + x176 + x193 <= 1
 clq373:  x141 + x172 <= 1
 clq374:  x30 + x175 <= 1
 clq375:  x71 + x136 + x177 <= 1
 clq376:  x11 + x25 + x199 <= 1
 clq377:  x80 + x183 + x193 <= 1
 clq378:  x49 + x170 + x196 <= 1
 clq379:  x59 + x67 + x112 <= 1
 clq380:  x22 + x94 + x132 <= 1
 clq381:  x5 + x152 <= 1
 clq382:  x21 + x38 + x67 <= 1
 clq383:  x30 + x84 + x148 <= 1
 clq384:  x155 + x161 + x175 <= 1
 clq385:  x82 + x171 + x191 <= 1
 clq386:  x14 + x34 + x186 <= 1
 clq387:  x10 + x135 + x144 <= 1
 clq388:  x30 + x192 <= 1
 clq389:  x6 + x35 + x139 <= 1
 clq390:  x138 + x199 <= 1
 clq391:  x44 + x54 + x81 <= 1
 clq392:  x25 + x76 + x136 <= 1
 clq393:  x31 + x91 + x93 <= 1
 clq394:  x20 + x149 <= 1
 clq395:  x21 + x47 + x55 <= 1
 clq396:  x46 + x51 + x120 + x170 <= 1
 clq397:  x83 + x113 + x154 <= 1
 clq398:  x13 + x155 + x160 <= 1
 clq399:  x22 + x92 <= 1
 clq400:  x107 + x178 <= 1
 clq401:  x90 + x174 + x184 <= 1
 clq402:  x19 + x161 + x187 <= 1
 clq403:  x49 + x99 + x172 <= 1
 clq404:  x17 + x35 + x54 + x181 <= 1
 clq405:  x94 + x129 + x146 <= 1
 clq406:  x73 + x140 + x177 <= 1
 clq407:  x83 + x118 + x184 <= 1
 clq408:  x31 + x93 + x130 <= 1
 clq409:  x66 + x72 + x121 <= 1
 clq410:  x46 + x58 + x177 <= 1
 clq411:  x76 + x136 + x181 <= 1
 clq412:  x13 + x79 + x132 <= 1
 clq413:  x14 + x181 + x186 <= 1
 clq414:  x75 + x82 + x155 <= 1
 clq415:  x20 + x93 + x194 <= 1
 clq416:  x121 + x139 + x182 <= 1
 clq417:  x86 + x114 + x115 <= 1
 clq418:  x88 + x105 + x107 <= 1
 clq419:  x73 + x138 <= 1
 clq420:  x123 + x152 + x175 + x198 <= 1
 clq421:  x16 + x138 <= 1
 clq422:  x2 + x114 + x130 <= 1
 clq423:  x23 + x85 + x125 <= 1
 clq424:  x59 + x87 + x133 <= 1
 clq425:  x118 + x144 + x182 <= 1
 clq426:  x48 + x64 + x74 <= 1
 clq427:  x69 + x150 + x180 <= 1
 clq428:  x10 + x55 + x162 <= 1
 clq429:  x40 + x74 + x126 <= 1
 clq430:  x24 + x53 <= 1
 clq431:  x14 + x54 + x127 <= 1
 clq432:  x18 + x80 + x141 + x179 <= 1
 clq433:  x5 + x143 + x173 <= 1
 clq434:  x88 + x116 <= 1
 clq435:  x37 + x109 + x171 <= 1
 clq436:  x26 + x76 + x163 <= 1
 clq437:  x66 + x70 + x193 <= 1
 clq438:  x7 + x199 <= 1
 clq439:  x30 + x37 + x61 <= 1
 clq440:  x41 + x98 + x114 <= 1
 clq441:  x118 + x168 + x184 <= 1
 clq442:  x55 + x161 + x187 <= 1
 clq443:  x160 + x189 + x195 <= 1
 clq444:  x29 + x68 + x70 <= 1
 clq445:  x24 + x44 <= 1
 clq446:  x90 + x144 <= 1
 clq447:  x11 + x158 + x185 <= 1
 clq448:  x17 + x23 + x189 <= 1
 clq449:  x66 + x108 + x197 <= 1
 clq450:  x78 + x82 + x93 <= 1
 clq451:  x55 + x159 + x166 <= 1
 clq452:  x16 + x153 + x197 <= 1
 clq453:  x7 + x150 + x182 <= 1
 clq454:  x24 + x177 + x184 + x190 <= 1
 clq455:  x17 + x26 + x153 <= 1
 clq456:  x123 + x167 + x189 <= 1
 clq457:  x173 + x193 + x195 <= 1
 clq458:  x53 + x82 + x90 + x133 <= 1
 clq459:  x22 + x40 + x77 <= 1
 clq460:  x67 + x147 + x166 + x182 <= 1
 clq461:  x14 + x99 + x186 <= 1
 clq462:  x16 + x46 <= 1
 clq463:  x125 + x183 + x193 <= 1
 clq464:  x100 + x133 + x148 <= 1
 clq465:  x125 + x133 + x156 <= 1
 clq466:  x35 + x76 + x181 <= 1
 clq467:  x19 + x114 <= 1
 clq468:  x100 + x104 + x140 <= 1
 clq469:  x21 + x67 + x80 <= 1
 clq470:  x18 + x59 + x174 <= 1
 clq471:  x30 + x154 + x166 <= 1
 clq472:  x66 + x85 + x162 <= 1
 clq473:  x11 + x132 + x147 <= 1
 clq474:  x1 + x67 + x186 <= 1
 clq475:  x48 + x64 + x166 <= 1
 clq476:  x80 + x88 + x157 <= 1
 clq477:  x122 + x136 <= 1
 clq478:  x50 + x120 + x149 <= 1
 clq479:  x33 + x102 <= 1
 clq480:  x40 + x103 <= 1
 clq481:  x9 + x65 + x171 <= 1
 clq482:  x9 + x95 + x186 <= 1
 clq483:  x100 + x109 + x142 <= 1
 clq484:  x29 + x84 + x151 <= 1
 clq485:  x24 + x77 + x190 <= 1
 clq486:  x5 + x58 + x197 <= 1
 clq487:  x100 + x179 <= 1
 clq488:  x8 + x26 + x163 <= 1
 clq489:  x126 + x165 + x192 <= 1
 clq490:  x39 + x102 <= 1
 clq491:  x1 + x23 <= 1
 clq492:  x60 + x71 + x103 <= 1
 clq493:  x64 + x108 <= 1
 clq494:  x66 + x140 + x177 <= 1
 clq495:  x1 + x8 + x70 <= 1
 clq496:  x60 + x110 <= 1
 clq497:  x176 + x180 <= 1
 clq498:  x9 + x158 <= 1
 clq499:  x31 + x124 <= 1
 clq500:  x61 + x155 + x193 <= 1
 clq501:  x2 + x106 + x109 + x111 <= 1
 clq502:  x4 + x68 + x111 <= 1
 clq503:  x31 + x91 + x172 <= 1
 clq504:  x20 + x27 + x68 + x70 <= 1
 clq505:  x28 + x76 + x124 <= 1
 clq506:  x46 + x164 + x177 <= 1
 clq507:  x99 + x174 + x195 <= 1
 clq508:  x4 + x52 + x198 <= 1
 clq509:  x34 + x105 + x152 <= 1
 clq510:  x45 + x139 + x191 <= 1
 clq511:  x159 + x174 + x185 <= 1
 clq512:  x33 + x51 + x198 <= 1
 clq513:  x19 + x148 + x187 <= 1
 clq514:  x40 + x99 + x100 <= 1
 clq515:  x28 + x197 <= 1
 clq516:  x92 + x117 <= 1
 clq517:  x25 + x156 <= 1
 clq518:  x140 + x188 <= 1
 clq519:  x107 + x125 + x176 <= 1
 clq520:  x26 + x72 + x155 <= 1
 clq521:  x33 + x154 + x191 <= 1
 clq522:  x4 + x50 + x120 <= 1
 clq523:  x43 + x169 + x187 <= 1
 clq524:  x71 + x103 + x157 <= 1
 clq525:  x20 + x71 + x136 <= 1
 clq526:  x116 + x124 <= 1
 clq527:  x27 + x67 + x151 <= 1
 clq528:  x128 + x159 <= 1
 clq529:  x75 + x92 + x133 <= 1
 clq530:  x126 + x147 + x186 <= 1
 clq531:  x82 + x99 + x100 <= 1
 clq532:  x1 + x94 + x129 <= 1
 clq533:  x92 + x196 + x200 <= 1
 clq534:  x8 + x64 + x70 <= 1
 clq535:  x75 + x114 + x133 <= 1
 clq536:  x95 + x104 <= 1
 clq537:  x28 + x62 <= 1
 clq538:  x49 + x99 + x146 <= 1
 clq539:  x78 + x85 + x92 <= 1
 clq540:  x97 + x120 + x170 <= 1
 clq541:  x14 + x91 + x197 <= 1
 clq542:  x41 + x46 + x104 <= 1
 clq543:  x29 + x42 + x111 <= 1
 clq544:  x82 + x125 + x133 <= 1
 clq545:  x46 + x170 + x178 <= 1
 clq546:  x49 + x109 + x182 <= 1
 clq547:  x69 + x164 + x180 + x192 <= 1
 clq548:  x97 + x106 + x170 <= 1
 clq549:  x80 + x96 + x130 <= 1
 clq550:  x40 + x55 + x98 <= 1
 clq551:  x65 + x89 <= 1
 clq552:  x171 + x172 <= 1
 clq553:  x88 + x105 + x110 <= 1
 clq554:  x31 + x71 + x161 <= 1
 clq555:  x84 + x85 + x169 <= 1
 clq556:  x16 + x126 + x130 <= 1
 clq557:  x2 + x68 + x106 + x111 <= 1
 clq558:  x41 + x147 + x158 <= 1
 clq559:  x24 + x140 + x177 <= 1
 clq560:  x94 + x153 + x167 <= 1
 clq561:  x42 + x143 + x188 <= 1
 clq562:  x128 + x150 <= 1
 clq563:  x87 + x126 <= 1
 clq564:  x38 + x68 + x106 <= 1
 clq565:  x43 + x67 + x151 <= 1
 clq566:  x53 + x82 + x89 + x90 <= 1
 clq567:  x23 + x114 + x130 <= 1
 clq568:  x18 + x191 <= 1
 clq569:  x181 + x185 + x187 <= 1
 clq570:  x174 + x189 + x195 <= 1
 clq571:  x108 + x134 <= 1
 clq572:  x142 + x158 + x185 <= 1
 clq573:  x146 + x165 + x195 <= 1
 clq574:  x103 + x115 + x157 <= 1
 clq575:  x65 + x124 + x162 <= 1
 clq576:  x89 + x126 + x176 <= 1
 clq577:  x35 + x56 + x139 <= 1
 clq578:  x23 + x48 <= 1
 clq579:  x65 + x161 <= 1
 clq580:  x80 + x129 + x157 <= 1
 clq581:  x123 + x183 + x193 <= 1
 clq582:  x6 + x119 + x134 <= 1
 clq583:  x165 + x172 + x194 <= 1
 clq584:  x82 + x139 + x191 <= 1
 clq585:  x113 + x120 <= 1
 clq586:  x92 + x133 + x143 <= 1
 clq587:  x94 + x153 + x191 <= 1
 clq588:  x3 + x81 + x179 <= 1
 clq589:  x19 + x35 + x187 <= 1
 clq590:  x8 + x51 + x111 <= 1
 clq591:  x87 + x133 + x156 <= 1
 clq592:  x62 + x64 + x195 <= 1
 clq593:  x24 + x105 <= 1
 clq594:  x54 + x86 + x153 <= 1
 clq595:  x23 + x38 + x42 + x130 <= 1
 clq596:  x62 + x142 + x145 <= 1
 clq597:  x145 + x188 <= 1
 clq598:  x46 + x104 + x111 <= 1
 clq599:  x24 + x86 <= 1
 clq600:  x41 + x89 + x198 <= 1
 clq601:  x86 + x143 <= 1
 clq602:  x9 + x76 + x181 <= 1
 clq603:  x82 + x133 + x143 <= 1
 clq604:  x23 + x55 + x122 <= 1
 clq605:  x27 + x46 + x151 <= 1
 clq606:  x78 + x82 + x199 <= 1
 clq607:  x42 + x79 + x199 <= 1
 clq608:  x8 + x103 + x192 <= 1
 clq609:  x35 + x91 <= 1
 clq610:  x93 + x101 + x144 + x167 <= 1
 clq611:  x94 + x101 + x167 <= 1
 clq612:  x93 + x157 <= 1
 clq613:  x4 + x139 + x162 <= 1
 clq614:  x58 + x94 + x189 <= 1
 clq615:  x58 + x114 + x121 + x155 <= 1
 clq616:  x85 + x92 + x162 <= 1
 clq617:  x64 + x74 + x135 + x193 <= 1
 clq618:  x50 + x123 <= 1
 clq619:  x15 + x92 + x200 <= 1
 clq620:  x93 + x101 + x194 <= 1
 clq621:  x41 + x89 + x90 + x158 <= 1
 clq622:  x19 + x73 + x151 <= 1
 clq623:  x93 + x183 <= 1
 clq624:  x60 + x71 + x123 <= 1
 clq625:  x117 + x145 + x195 <= 1
 clq626:  x7 + x169 <= 1
 clq627:  x116 + x169 + x190 <= 1
 clq628:  x42 + x60 + x123 <= 1
 clq629:  x53 + x79 <= 1
 clq630:  x9 + x189 + x195 <= 1
 clq631:  x109 + x141 + x152 <= 1
 clq632:  x32 + x39 + x68 <= 1
 clq633:  x42 + x89 <= 1
 clq634:  x76 + x183 + x193 <= 1
 clq635:  x5 + x111 + x149 <= 1
 clq636:  x78 + x93 + x146 <= 1
 clq637:  x45 + x179 <= 1
 clq638:  x4 + x28 + x120 <= 1
 clq639:  x1 + x27 + x121 <= 1
 clq640:  x1 + x89 + x121 <= 1
 clq641:  x44 + x133 + x156 <= 1
 clq642:  x166 + x168 <= 1
 clq643:  x49 + x162 + x170 <= 1
 clq644:  x11 + x62 + x132 <= 1
 clq645:  x134 + x154 <= 1
 clq646:  x21 + x80 + x161 <= 1
 clq647:  x59 + x138 + x172 <= 1
 clq648:  x45 + x88 <= 1
 clq649:  x78 + x108 <= 1
 clq650:  x56 + x115 + x184 <= 1
 clq651:  x109 + x171 + x174 <= 1
 clq652:  x12 + x120 + x127 + x170 <= 1
 clq653:  x23 + x122 + x125 <= 1
 clq654:  x148 + x154 + x191 <= 1
 clq655:  x109 + x120 + x127 <= 1
 clq656:  x43 + x131 + x149 <= 1
 clq657:  x69 + x113 <= 1
 clq658:  x81 + x116 + x180 <= 1
 clq659:  x78 + x149 + x199 <= 1
 clq660:  x137 + x170 + x174 <= 1
 clq661:  x7 + x178 + x182 <= 1
 clq662:  x156 + x179 <= 1
 clq663:  x85 + x144 + x191 <= 1
 clq664:  x4 + x124 + x176 <= 1
 clq665:  x137 + x153 + x197 <= 1
 clq666:  x35 + x78 + x173 <= 1
 clq667:  x24 + x91 + x155 <= 1
 clq668:  x25 + x123 + x175 <= 1
 clq669:  x6 + x118 <= 1
 clq670:  x35 + x40 + x126 <= 1
 clq671:  x31 + x104 + x161 <= 1
 clq672:  x123 + x166 <= 1
 clq673:  x44 + x143 + x144 <= 1
 clq674:  x4 + x55 + x124 + x162 <= 1
 clq675:  x59 + x133 + x172 <= 1
 clq676:  x2 + x40 + x144 <= 1
 clq677:  x14 + x57 + x182 <= 1
 clq678:  x39 + x97 + x138 <= 1
 clq679:  x91 + x168 <= 1
 clq680:  x142 + x194 <= 1
 clq681:  x110 + x125 <= 1
 clq682:  x12 + x120 + x181 <= 1
 clq683:  x9 + x78 + x149 <= 1
 clq684:  x100 + x180 + x192 <= 1
 clq685:  x4 + x13 + x100 <= 1
 clq686:  x6 + x177 + x190 + x195 <= 1
 clq687:  x53 + x104 + x161 <= 1
 clq688:  x116 + x126 <= 1
 clq689:  x16 + x35 + x78 <= 1
 clq690:  x22 + x138 + x178 <= 1
 clq691:  x34 + x79 + x194 <= 1
 clq692:  x5 + x19 + x186 <= 1
 clq693:  x16 + x89 + x126 <= 1
 clq694:  x32 + x37 + x121 <= 1
 clq695:  x159 + x194 <= 1
 clq696:  x25 + x99 + x174 <= 1
 clq697:  x3 + x155 <= 1
 clq698:  x71 + x105 + x119 <= 1
 clq699:  x82 + x95 + x155 <= 1
 clq700:  x2 + x3 + x158 <= 1
 clq701:  x20 + x52 + x128 <= 1
 clq702:  x38 + x200 <= 1
 clq703:  x159 + x179 + x199 <= 1
 clq704:  x33 + x147 + x175 <= 1
 clq705:  x181 + x190 <= 1
 clq706:  x106 + x109 + x131 <= 1
 clq707:  x69 + x114 + x117 <= 1
 clq708:  x82 + x90 + x115 <= 1
 clq709:  x63 + x105 + x119 <= 1
 clq710:  x5 + x8 + x157 <= 1
 clq711:  x48 + x172 + x194 <= 1
 clq712:  x86 + x137 + x170 <= 1
 clq713:  x4 + x25 + x136 <= 1
 clq714:  x13 + x40 + x100 <= 1
 clq715:  x78 + x88 + x187 <= 1
 clq716:  x112 + x197 <= 1
 clq717:  x57 + x84 + x161 <= 1
 clq718:  x46 + x60 + x91 + x156 <= 1
 clq719:  x41 + x147 + x166 <= 1
 clq720:  x76 + x127 + x163 <= 1
 clq721:  x9 + x59 + x168 <= 1
 clq722:  x20 + x39 + x68 <= 1
 clq723:  x13 + x92 + x162 <= 1
 clq724:  x32 + x45 + x48 <= 1
 clq725:  x85 + x102 + x162 <= 1
 clq726:  x49 + x122 + x170 <= 1
 clq727:  x4 + x46 + x51 + x120 <= 1
 clq728:  x112 + x118 + x140 <= 1
 clq729:  x39 + x138 + x172 <= 1
 clq730:  x29 + x68 + x106 + x111 <= 1
 clq731:  x26 + x122 + x147 <= 1
 clq732:  x84 + x102 + x151 <= 1
 clq733:  x2 + x14 + x123 <= 1
 clq734:  x114 + x130 + x192 <= 1
 clq735:  x55 + x166 + x187 <= 1
 clq736:  x170 + x174 + x185 <= 1
 clq737:  x89 + x158 + x185 <= 1
 clq738:  x33 + x147 + x196 <= 1
 clq739:  x112 + x135 + x191 <= 1
 clq740:  x127 + x137 + x170 <= 1
 clq741:  x51 + x129 + x155 <= 1
 clq742:  x27 + x147 + x196 <= 1
 clq743:  x61 + x125 + x193 <= 1
 clq744:  x39 + x74 <= 1
 clq745:  x85 + x172 <= 1
 clq746:  x25 + x28 + x65 <= 1
 clq747:  x85 + x152 + x179 <= 1
 clq748:  x21 + x120 + x170 <= 1
 clq749:  x60 + x79 + x153 <= 1
 clq750:  x5 + x143 + x197 <= 1
 clq751:  x82 + x89 + x100 <= 1
 clq752:  x25 + x76 + x174 <= 1
 clq753:  x83 + x112 + x135 <= 1
 clq754:  x102 + x143 + x168 <= 1
 clq755:  x68 + x133 + x172 <= 1
 clq756:  x25 + x65 + x75 <= 1
 clq757:  x106 + x117 + x131 <= 1
 clq758:  x11 + x127 + x200 <= 1
 clq759:  x46 + x51 + x150 <= 1
 clq760:  x33 + x167 + x192 <= 1
 clq761:  x49 + x52 + x172 <= 1
 clq762:  x26 + x89 + x107 <= 1
 clq763:  x90 + x192 <= 1
 clq764:  x88 + x109 + x122 + x187 <= 1
 clq765:  x41 + x70 <= 1
 clq766:  x12 + x148 + x191 <= 1
 clq767:  x163 + x175 <= 1
 clq768:  x90 + x127 + x184 <= 1
 clq769:  x23 + x101 <= 1
 clq770:  x105 + x118 + x136 <= 1
 clq771:  x60 + x79 + x190 <= 1
 clq772:  x31 + x143 + x179 <= 1
 clq773:  x66 + x129 + x168 <= 1
 clq774:  x59 + x129 + x168 <= 1
 clq775:  x10 + x18 + x37 <= 1
 clq776:  x117 + x155 + x175 <= 1
 clq777:  x37 + x190 + x195 <= 1
 clq778:  x106 + x131 + x164 <= 1
 clq779:  x90 + x109 + x127 <= 1
 clq780:  x38 + x62 + x175 <= 1
 clq781:  x44 + x112 <= 1
 clq782:  x76 + x124 + x183 <= 1
 clq783:  x3 + x23 + x122 <= 1
 clq784:  x23 + x54 + x140 <= 1
 clq785:  x162 + x170 + x174 <= 1
 clq786:  x10 + x55 + x130 <= 1
 clq787:  x111 + x160 <= 1
 clq788:  x12 + x66 + x138 <= 1
 clq789:  x67 + x152 + x198 <= 1
 clq790:  x28 + x55 + x127 <= 1
 clq791:  x7 + x26 <= 1
 clq792:  x43 + x49 + x52 <= 1
 clq793:  x68 + x70 + x144 <= 1
 clq794:  x36 + x41 + x90 <= 1
 clq795:  x25 + x121 <= 1
 clq796:  x74 + x124 <= 1
 clq797:  x21 + x37 + x67 <= 1
 clq798:  x52 + x181 <= 1
 clq799:  x91 + x92 + x196 <= 1
 clq800:  x136 + x181 + x186 <= 1
 clq801:  x183 + x188 <= 1
 clq802:  x22 + x59 + x138 <= 1
 clq803:  x11 + x25 + x110 <= 1
 clq804:  x34 + x158 + x185 <= 1
 clq805:  x118 + x165 + x182 <= 1
 clq806:  x52 + x66 + x193 <= 1
 clq807:  x91 + x155 + x159 <= 1
 clq808:  x3 + x44 + x81 <= 1
 clq809:  x4 + x143 + x198 <= 1
 clq810:  x5 + x81 <= 1
 clq811:  x121 + x125 + x197 <= 1
 clq812:  x13 + x79 + x100 + x148 <= 1
 clq813:  x31 + x77 + x145 <= 1
 clq814:  x107 + x131 + x173 <= 1
 clq815:  x113 + x119 + x169 <= 1
 clq816:  x15 + x103 + x184 <= 1
 clq817:  x66 + x141 + x193 <= 1
 clq818:  x26 + x96 + x116 <= 1
 clq819:  x107 + x125 + x133 <= 1
 clq820:  x73 + x151 + x177 <= 1
 clq821:  x2 + x48 <= 1
 clq822:  x7 + x117 <= 1
 clq823:  x94 + x153 + x196 <= 1
 clq824:  x83 + x95 + x135 + x184 <= 1
 clq825:  x143 + x168 + x198 <= 1
 clq826:  x11 + x49 + x188 <= 1
 clq827:  x43 + x130 <= 1
 clq828:  x58 + x94 + x132 <= 1
 clq829:  x38 + x41 + x130 <= 1
 clq830:  x51 + x70 + x129 <= 1
 clq831:  x40 + x189 <= 1
 clq832:  x62 + x80 <= 1
 clq833:  x1 + x77 <= 1
 clq834:  x22 + x42 + x69 <= 1
 clq835:  x9 + x79 + x83 <= 1
 clq836:  x128 + x168 <= 1
 clq837:  x42 + x131 <= 1
 clq838:  x65 + x75 + x106 <= 1
 clq839:  x64 + x65 + x122 <= 1
 clq840:  x34 + x36 + x140 <= 1
 clq841:  x5 + x53 + x58 <= 1
 clq842:  x8 + x29 + x84 <= 1
 clq843:  x138 + x198 <= 1
 clq844:  x66 + x70 + x129 <= 1
 clq845:  x141 + x178 + x184 <= 1
 clq846:  x22 + x31 + x132 <= 1
 clq847:  x20 + x100 + x129 <= 1
 clq848:  x23 + x85 + x191 <= 1
 clq849:  x37 + x139 + x196 <= 1
 clq850:  x9 + x19 + x187 <= 1
 clq851:  x143 + x164 <= 1
 clq852:  x92 + x96 + x185 <= 1
 clq853:  x31 + x33 + x93 <= 1
 clq854:  x2 + x86 + x114 <= 1
 clq855:  x66 + x85 + x169 <= 1
 clq856:  x28 + x76 + x181 <= 1
 clq857:  x4 + x25 + x51 + x111 <= 1
 clq858:  x21 + x47 + x168 <= 1
 clq859:  x90 + x116 + x151 <= 1
 clq860:  x33 + x147 + x167 <= 1
 clq861:  x89 + x90 + x108 <= 1
 clq862:  x52 + x94 + x146 <= 1
 clq863:  x135 + x171 + x191 <= 1
 clq864:  x43 + x49 + x151 <= 1
 clq865:  x16 + x130 + x196 <= 1
 clq866:  x24 + x85 + x92 + x179 <= 1
 clq867:  x72 + x103 <= 1
 clq868:  x165 + x172 + x192 <= 1
 clq869:  x34 + x69 <= 1
 clq870:  x55 + x60 + x98 <= 1
 clq871:  x64 + x88 + x122 <= 1
 clq872:  x57 + x83 + x95 <= 1
 clq873:  x110 + x177 <= 1
 clq874:  x58 + x70 + x163 <= 1
 clq875:  x129 + x154 <= 1
 clq876:  x59 + x108 <= 1
 clq877:  x2 + x110 + x144 <= 1
 clq878:  x38 + x49 + x151 <= 1
 clq879:  x42 + x47 <= 1
 clq880:  x31 + x130 + x172 <= 1
 clq881:  x48 + x154 + x166 <= 1
 clq882:  x101 + x117 <= 1
 clq883:  x66 + x185 <= 1
 clq884:  x51 + x119 + x150 <= 1
 clq885:  x11 + x188 + x190 <= 1
 clq886:  x20 + x136 + x186 <= 1
 clq887:  x85 + x107 + x131 <= 1
 clq888:  x72 + x176 <= 1
 clq889:  x19 + x61 + x147 <= 1
 clq890:  x109 + x187 + x199 <= 1
 clq891:  x86 + x137 + x153 <= 1
 clq892:  x4 + x22 + x136 <= 1
 clq893:  x36 + x82 + x90 <= 1
 clq894:  x68 + x78 + x133 <= 1
 clq895:  x98 + x171 + x183 <= 1
 clq896:  x122 + x125 + x176 <= 1
 clq897:  x21 + x81 + x116 <= 1
 clq898:  x80 + x130 + x161 <= 1
 clq899:  x11 + x65 + x132 <= 1
 clq900:  x83 + x154 + x199 <= 1
 clq901:  x23 + x122 + x189 <= 1
 clq902:  x19 + x54 + x151 <= 1
 clq903:  x2 + x37 + x109 <= 1
 clq904:  x43 + x144 + x182 <= 1
 clq905:  x170 + x193 <= 1
 clq906:  x11 + x13 + x24 + x190 <= 1
 clq907:  x13 + x100 + x150 <= 1
 clq908:  x30 + x61 + x166 <= 1
 clq909:  x86 + x150 + x182 <= 1
 clq910:  x88 + x128 + x187 <= 1
 clq911:  x54 + x64 + x140 <= 1
 clq912:  x18 + x92 + x143 + x179 <= 1
 clq913:  x56 + x65 + x106 <= 1
 clq914:  x54 + x168 + x179 <= 1
 clq915:  x38 + x62 + x69 <= 1
 clq916:  x8 + x61 <= 1
 clq917:  x50 + x145 + x186 <= 1
 clq918:  x60 + x169 + x190 <= 1
 clq919:  x18 + x127 + x145 <= 1
 clq920:  x52 + x164 + x180 <= 1
 clq921:  x72 + x121 + x128 <= 1
 clq922:  x14 + x91 + x92 <= 1
 clq923:  x45 + x49 + x182 <= 1
 clq924:  x57 + x157 <= 1
 clq925:  x109 + x119 <= 1
 clq926:  x6 + x28 + x150 <= 1
 clq927:  x105 + x162 <= 1
 clq928:  x164 + x169 + x192 <= 1
 clq929:  x8 + x51 + x70 + x103 <= 1
 clq930:  x136 + x155 <= 1
 clq931:  x124 + x185 <= 1
 clq932:  x38 + x178 + x181 <= 1
 clq933:  x35 + x120 + x132 <= 1
 clq934:  x55 + x106 <= 1
 clq935:  x30 + x131 <= 1
 clq936:  x133 + x145 + x195 <= 1
 clq937:  x106 + x148 + x170 <= 1
 clq938:  x22 + x31 + x182 <= 1
 clq939:  x4 + x54 + x64 + x96 <= 1
 clq940:  x67 + x86 + x182 <= 1
 clq941:  x83 + x114 + x117 <= 1
 clq942:  x34 + x36 + x183 <= 1
 clq943:  x6 + x152 <= 1
 clq944:  x58 + x71 + x99 <= 1
 clq945:  x124 + x141 <= 1
 clq946:  x94 + x153 + x162 <= 1
 clq947:  x3 + x145 <= 1
 clq948:  x23 + x122 + x173 <= 1
 clq949:  x6 + x23 <= 1
 clq950:  x63 + x75 <= 1
 clq951:  x37 + x61 + x190 <= 1
 clq952:  x123 + x153 + x167 <= 1
 clq953:  x20 + x88 + x158 <= 1
 clq954:  x19 + x45 + x132 + x147 <= 1
 clq955:  x16 + x125 + x197 <= 1
 clq956:  x29 + x37 + x70 <= 1
 clq957:  x46 + x74 + x151 <= 1
 clq958:  x41 + x131 + x132 <= 1
 clq959:  x34 + x152 + x183 <= 1
 clq960:  x88 + x158 + x164 <= 1
 clq961:  x58 + x69 + x114 <= 1
 clq962:  x1 + x39 + x79 <= 1
 clq963:  x123 + x165 <= 1
 clq964:  x61 + x90 + x174 <= 1
 clq965:  x6 + x72 + x121 <= 1
 clq966:  x28 + x170 + x179 <= 1
 clq967:  x85 + x142 + x144 <= 1
 clq968:  x147 + x178 + x182 <= 1
 clq969:  x16 + x114 + x130 <= 1
 clq970:  x21 + x49 + x182 <= 1
 clq971:  x46 + x60 + x79 <= 1
 clq972:  x101 + x164 <= 1
 clq973:  x142 + x178 <= 1
 clq974:  x18 + x143 + x190 <= 1
 clq975:  x33 + x112 + x191 <= 1
 clq976:  x106 + x111 + x164 <= 1
 clq977:  x104 + x174 <= 1
 clq978:  x21 + x68 + x154 <= 1
 clq979:  x128 + x132 <= 1
 clq980:  x28 + x105 <= 1
 clq981:  x57 + x106 + x149 <= 1
 clq982:  x56 + x58 + x123 <= 1
 clq983:  x94 + x106 + x167 <= 1
 clq984:  x66 + x129 + x169 <= 1
 clq985:  x10 + x30 + x146 <= 1
 clq986:  x19 + x77 + x154 <= 1
 clq987:  x61 + x117 + x166 <= 1
 clq988:  x84 + x85 + x102 <= 1
 clq989:  x94 + x121 + x167 <= 1
 clq990:  x5 + x46 + x60 <= 1
 clq991:  x8 + x64 + x74 <= 1
 clq992:  x39 + x195 <= 1
 clq993:  x83 + x112 + x199 <= 1
 clq994:  x38 + x50 + x169 <= 1
 clq995:  x9 + x19 + x186 <= 1
 clq996:  x91 + x151 + x196 <= 1
 clq997:  x11 + x47 + x185 + x200 <= 1
 clq998:  x4 + x34 + x52 <= 1
 clq999:  x100 + x127 + x140 <= 1
 clq1000: x70 + x117 <= 1
 clq1001: x2 + x37 + x179 <= 1
 clq1002: x52 + x57 + x172 <= 1
 clq1003: x110 + x145 + x181 <= 1
 clq1004: x45 + x137 + x139 <= 1
 clq1005: x20 + x80 + x127 <= 1
 clq1006: x107 + x130 + x192 <= 1
 clq1007: x1 + x121 + x128 <= 1
 clq1008: x112 + x185 + x200 <= 1
 clq1009: x151 + x163 <= 1
 clq1010: x105 + x133 + x145 <= 1
 clq1011: x49 + x56 + x115 + x172 <= 1
 clq1012: x12 + x120 + x177 <= 1
 clq1013: x6 + x68 <= 1
 clq1014: x128 + x192 <= 1
 clq1015: x19 + x148 + x154 <= 1
 clq1016: x57 + x145 <= 1
 clq1017: x71 + x160 + x175 <= 1
 clq1018: x65 + x81 + x179 <= 1
 clq1019: x20 + x33 + x80 <= 1
 clq1020: x31 + x54 + x96 <= 1
 clq1021: x58 + x156 + x163 <= 1
 clq1022: x19 + x97 + x147 <= 1
 clq1023: x91 + x142 + x197 <= 1
 clq1024: x83 + x97 <= 1
 clq1025: x56 + x58 + x61 <= 1
 clq1026: x163 + x165 <= 1
 clq1027: x52 + x172 + x180 <= 1
 clq1028: x60 + x90 + x127 <= 1
 clq1029: x135 + x143 + x144 <= 1
 clq1030: x59 + x168 + x179 <= 1
 clq1031: x62 + x119 <= 1
 clq1032: x126 + x147 + x173 <= 1
 clq1033: x37 + x55 + x70 <= 1
 clq1034: x7 + x170 + x178 <= 1
 clq1035: x86 + x114 + x137 <= 1
 clq1036: x9 + x95 + x195 <= 1
 clq1037: x56 + x172 + x180 <= 1
 clq1038: x56 + x61 + x113 <= 1
 clq1039: x73 + x103 + x115 <= 1
 clq1040: x77 + x194 <= 1
 clq1041: x32 + x121 + x181 <= 1
 clq1042: x2 + x51 + x111 <= 1
 clq1043: x46 + x51 + x111 + x164 <= 1
 clq1044: x75 + x82 + x133 <= 1
 clq1045: x28 + x120 + x181 <= 1
 clq1046: x117 + x157 <= 1
 clq1047: x129 + x178 <= 1
 clq1048: x50 + x191 <= 1
 clq1049: x48 + x154 + x177 <= 1
 clq1050: x187 + x193 <= 1
 clq1051: x26 + x76 + x183 <= 1
 clq1052: x72 + x178 <= 1
 clq1053: x25 + x175 + x199 <= 1
 clq1054: x70 + x159 + x199 <= 1
 clq1055: x10 + x178 <= 1
 clq1056: x16 + x71 <= 1
 clq1057: x114 + x119 <= 1
 clq1058: x31 + x56 + x115 + x172 <= 1
 clq1059: x19 + x54 + x147 <= 1
 clq1060: x63 + x91 <= 1
 clq1061: x38 + x67 + x82 <= 1
 clq1062: x105 + x107 + x152 <= 1
 clq1063: x43 + x142 + x144 <= 1
 clq1064: x13 + x88 + x155 <= 1
 clq1065: x65 + x129 <= 1
 clq1066: x37 + x109 + x190 <= 1
 clq1067: x47 + x178 <= 1
 clq1068: x3 + x29 <= 1
 clq1069: x6 + x96 + x131 <= 1
 clq1070: x71 + x99 + x139 <= 1
 clq1071: x102 + x145 <= 1
 clq1072: x57 + x172 + x177 <= 1
 clq1073: x49 + x122 + x173 <= 1
 clq1074: x73 + x85 + x144 <= 1
Bounds
 0 <= x1 <= 1
 0 <= x2 <= 1
 0 <= x3 <= 1
 0 <= x4 <= 1
 0 <= x5 <= 1
 0 <= x6 <= 1
 0 <= x7 <= 1
 0 <= x8 <= 1
 0 <= x9 <= 1
 0 <= x10 <= 1
 0 <= x11 <= 1
 0 <= x12 <= 1
 0 <= x13 <= 1
 0 <= x14 <= 1
 0 <= x15 <= 1
 0 <= x16 <= 1
 0 <= x17 <= 1
 0 <= x18 <= 1
 0 <= x19 <= 1
 0 <= x20 <= 1
 0 <= x21 <= 1
 0 <= x22 <= 1
 0 <= x23 <= 1
 0 <= x24 <= 1
 0 <= x25 <= 1
 0 <= x26 <= 1
 0 <= x27 <= 1
 0 <= x28 <= 1
 0 <= x29 <= 1
 0 <= x30 <= 1
 0 <= x31 <= 1
 0 <= x32 <= 1
 0 <= x33 <= 1
 0 <= x34 <= 1
 0 <= x35 <= 1
 0 <= x36 <= 1
 0 <= x37 <= 1
 0 <= x38 <= 1
 0 <= x39 <= 1
 0 <= x40 <= 1
 0 <= x41 <= 1
 0 <= x42 <= 1
 0 <= x43 <= 1
 0 <= x44 <= 1
 0 <= x45 <= 1
 0 <= x46 <= 1
 0 <= x47 <= 1
 0 <= x48 <= 1
 0 <= x49 <= 1
 0 <= x50 <= 1
 0 <= x51 <= 1
 0 <= x52 <= 1
 0 <= x53 <= 1
 0 <= x54 <= 1
 0 <= x55 <= 1
 0 <= x56 <= 1
 0 <= x57 <= 1
 0 <= x58 <= 1
 0 <= x59 <= 1
 0 <= x60 <= 1
 0 <= x61 <= 1
 0 <= x62 <= 1
 0 <= x63 <= 1
 0 <= x64 <= 1
 0 <= x65 <= 1
 0 <= x66 <= 1
 0 <= x67 <= 1
 0 <= x68 <= 1
 0 <= x69 <= 1
 0 <= x70 <= 1
 0 <= x71 <= 1
 0 <= x72 <= 1
 0 <= x73 <= 1
 0 <= x74 <= 1
 0 <= x75 <= 1
 0 <= x76 <= 1
 0 <= x77 <= 1
 0 <= x78 <= 1
 0 <= x79 <= 1
 0 <= x80 <= 1
 0 <= x81 <= 1
 0 <= x82 <= 1
 0 <= x83 <= 1
 0 <= x84 <= 1
 0 <= x85 <= 1
 0 <= x86 <= 1
 0 <= x87 <= 1
 0 <= x88 <= 1
 0 <= x89 <= 1
 0 <= x90 <= 1
 0 <= x91 <= 1
 0 <= x92 <= 1
 0 <= x93 <= 1
 0 <= x94 <= 1
 0 <= x95 <= 1
 0 <= x96 <= 1
 0 <= x97 <= 1
 0 <= x98 <= 1
 0 <= x99 <= 1
 0 <= x100 <= 1
 0 <= x101 <= 1
 0 <= x102 <= 1
 0 <= x103 <= 1
 0 <= x104 <= 1
 0 <= x105 <= 1
 0 <= x106 <= 1
 0 <= x107 <= 1
 0 <= x108 <= 1
 0 <= x109 <= 1
 0 <= x110 <= 1
 0 <= x111 <= 1
 0 <= x112 <= 1
 0 <= x113 <= 1
 0 <= x114 <= 1
 0 <= x115 <= 1
 0 <= x116 <= 1
 0 <= x117 <= 1
 0 <= x118 <= 1
 0 <= x119 <= 1
 0 <= x120 <= 1
 0 <= x121 <= 1
 0 <= x122 <= 1
 0 <= x123 <= 1
 0 <= x124 <= 1
 0 <= x125 <= 1
 0 <= x126 <= 1
 0 <= x127 <= 1
 0 <= x128 <= 1
 0 <= x129 <= 1
 0 <= x130 <= 1
 0 <= x131 <= 1
 0 <= x132 <= 1
 0 <= x133 <= 1
 0 <= x134 <= 1
 0 <= x135 <= 1
 0 <= x136 <= 1
 0 <= x137 <= 1
 0 <= x138 <= 1
 0 <= x139 <= 1
 0 <= x140 <= 1
 0 <= x141 <= 1
 0 <= x142 <= 1
 0 <= x143 <= 1
 0 <= x144 <= 1
 0 <= x145 <= 1
 0 <= x146 <= 1
 0 <= x147 <= 1
 0 <= x148 <= 1
 0 <= x149 <= 1
 0 <= x150 <= 1
 0 <= x151 <= 1
 0 <= x152 <= 1
 0 <= x153 <= 1
 0 <= x154 <= 1
 0 <= x155 <= 1
 0 <= x156 <= 1
 0 <= x157 <= 1
 0 <= x158 <= 1
 0 <= x159 <= 1
 0 <= x160 <= 1
 0 <= x161 <= 1
 0 <= x162 <= 1
 0 <= x163 <= 1
 0 <= x164 <= 1
 0 <= x165 <= 1
 0 <= x166 <= 1
 0 <= x167 <= 1
 0 <= x168 <= 1
 0 <= x169 <= 1
 0 <= x170 <= 1
 0 <= x171 <= 1
 0 <= x172 <= 1
 0 <= x173 <= 1
 0 <= x174 <= 1
 0 <= x175 <= 1
 0 <= x176 <= 1
 0 <= x177 <= 1
 0 <= x178 <= 1
 0 <= x179 <= 1
 0 <= x180 <= 1
 0 <= x181 <= 1
 0 <= x182 <= 1
 0 <= x183 <= 1
 0 <= x184 <= 1
 0 <= x185 <= 1
 0 <= x186 <= 1
 0 <= x187 <= 1
 0 <= x188 <= 1
 0 <= x189 <= 1
 0 <= x190 <= 1
 0 <= x191 <= 1
 0 <= x192 <= 1
 0 <= x193 <= 1
 0 <= x194 <= 1
 0 <= x195 <= 1
 0 <= x196 <= 1
 0 <= x197 <= 1
 0 <= x198 <= 1
 0 <= x199 <= 1
 0 <= x200 <= 1
Binaries
 x1  x2  x3  x4  x5  x6  x7  x8  x9  x10  x11  x12  x13  x14  x15  x16  x17 
 x18  x19  x20  x21  x22  x23  x24  x25  x26  x27  x28  x29  x30  x31  x32 
 x33  x34  x35  x36  x37  x38  x39  x40  x41  x42  x43  x44  x45  x46  x47 
 x48  x49  x50  x51  x52  x53  x54  x55  x56  x57  x58  x59  x60  x61  x62 
 x63  x64  x65  x66  x67  x68  x69  x70  x71  x72  x73  x74  x75  x76  x77 
 x78  x79  x80  x81  x82  x83  x84  x85  x86  x87  x88  x89  x90  x91  x92 
 x93  x94  x95  x96  x97  x98  x99  x100  x101  x102  x103  x104  x105  x106 
 x107  x108  x109  x110  x111  x112  x113  x114  x115  x116  x117  x118  x119 
 x120  x121  x122  x123  x124  x125  x126  x127  x128  x129  x130  x131  x132 
 x133  x134  x135  x136  x137  x138  x139  x140  x141  x142  x143  x144  x145 
 x146  x147  x148  x149  x150  x151  x152  x153  x154  x155  x156  x157  x158 
 x159  x160  x161  x162  x163  x164  x165  x166  x167  x168  x169  x170  x171 
 x172  x173  x174  x175  x176  x177  x178  x179  x180  x181  x182  x183  x184 
 x185  x186  x187  x188  x189  x190  x191  x192  x193  x194  x195  x196  x197 
 x198  x199  x200 
End
